g3 0 1 0	# problem dixmaank
 15 0 1 0 0	# vars, constraints, objectives, ranges, eqns
 0 1	# nonlinear constraints, objectives
 0 0	# network constraints: nonlinear, linear
 0 15 0	# nonlinear vars in constraints, objectives, both
 0 0 0 1	# linear network variables; functions; arith, flags
 0 0 0 0 0	# discrete variables: binary, integer, nonlinear (b,c,o)
 0 15	# nonzeros in Jacobian, gradients
 0 0	# max name lengths: constraints, variables
 0 0 0 0 0	# common exprs: b,c,o,c1,o1
O0 0
o54
45
o2
n0.0044444444444444444
o5
v0
n2
o2
n0.017777777777777778
o5
v1
n2
o2
n0.04000000000000001
o5
v2
n2
o2
n0.07111111111111111
o5
v3
n2
o2
n0.1111111111111111
o5
v4
n2
o2
n0.16000000000000003
o5
v5
n2
o2
n0.2177777777777778
o5
v6
n2
o2
n0.28444444444444444
o5
v7
n2
o2
n0.36
o5
v8
n2
o2
n0.4444444444444444
o5
v9
n2
o2
n0.5377777777777777
o5
v10
n2
o2
n0.6400000000000001
o5
v11
n2
o2
n0.7511111111111112
o5
v12
n2
o2
n0.8711111111111112
o5
v13
n2
o5
v14
n2
o2
o2
n0.125
o5
v0
n2
o5
o0
v1
o5
v1
n2
n2
o2
o2
n0.125
o5
v1
n2
o5
o0
v2
o5
v2
n2
n2
o2
o2
n0.125
o5
v2
n2
o5
o0
v3
o5
v3
n2
n2
o2
o2
n0.125
o5
v3
n2
o5
o0
v4
o5
v4
n2
n2
o2
o2
n0.125
o5
v4
n2
o5
o0
v5
o5
v5
n2
n2
o2
o2
n0.125
o5
v5
n2
o5
o0
v6
o5
v6
n2
n2
o2
o2
n0.125
o5
v6
n2
o5
o0
v7
o5
v7
n2
n2
o2
o2
n0.125
o5
v7
n2
o5
o0
v8
o5
v8
n2
n2
o2
o2
n0.125
o5
v8
n2
o5
o0
v9
o5
v9
n2
n2
o2
o2
n0.125
o5
v9
n2
o5
o0
v10
o5
v10
n2
n2
o2
o2
n0.125
o5
v10
n2
o5
o0
v11
o5
v11
n2
n2
o2
o2
n0.125
o5
v11
n2
o5
o0
v12
o5
v12
n2
n2
o2
o2
n0.125
o5
v12
n2
o5
o0
v13
o5
v13
n2
n2
o2
o2
n0.125
o5
v13
n2
o5
o0
v14
o5
v14
n2
n2
o2
o2
n0.125
o5
v0
n2
o5
v5
n4
o2
o2
n0.125
o5
v1
n2
o5
v6
n4
o2
o2
n0.125
o5
v2
n2
o5
v7
n4
o2
o2
n0.125
o5
v3
n2
o5
v8
n4
o2
o2
n0.125
o5
v4
n2
o5
v9
n4
o2
o2
n0.125
o5
v5
n2
o5
v10
n4
o2
o2
n0.125
o5
v6
n2
o5
v11
n4
o2
o2
n0.125
o5
v7
n2
o5
v12
n4
o2
o2
n0.125
o5
v8
n2
o5
v13
n4
o2
o2
n0.125
o5
v9
n2
o5
v14
n4
o2
n0.0044444444444444444
o2
o2
n0.125
v0
v10
o2
n0.017777777777777778
o2
o2
n0.125
v1
v11
o2
n0.04000000000000001
o2
o2
n0.125
v2
v12
o2
n0.07111111111111111
o2
o2
n0.125
v3
v13
o2
n0.1111111111111111
o2
o2
n0.125
v4
v14
n1
x15
0 2
1 2
2 2
3 2
4 2
5 2
6 2
7 2
8 2
9 2
10 2
11 2
12 2
13 2
14 2
b
3
3
3
3
3
3
3
3
3
3
3
3
3
3
3
k14
0
0
0
0
0
0
0
0
0
0
0
0
0
0
G0 15
0 0
1 0
2 0
3 0
4 0
5 0
6 0
7 0
8 0
9 0
10 0
11 0
12 0
13 0
14 0
